35
1 0 1
2 0 1
2 1 1
4 0 1
4 1 1
4 2 1
4 3 1
5 0 1
5 3 1
5 4 1
6 0 1
6 1 1
7 3 1
7 5 1
7 6 1
8 0 1
8 1 1
8 2 1
8 3 1
8 4 1
8 7 1
9 2 1
9 3 1
9 5 1
9 8 1
10 5 1
11 1 1
11 2 1
11 7 1
11 8 1
11 9 1
11 10 1
12 2 1
12 4 1
12 5 1
12 6 1
12 7 1
12 8 1
13 0 1
13 1 1
13 6 1
13 8 1
13 9 1
13 10 1
13 11 1
14 2 1
14 3 1
14 7 1
14 8 1
14 11 1
14 12 1
14 13 1
15 1 1
15 5 1
15 7 1
15 10 1
15 11 1
15 14 1
16 1 1
16 5 1
16 6 1
16 7 1
16 10 1
16 11 1
16 13 1
16 14 1
16 15 1
17 1 1
17 5 1
17 6 1
17 7 1
17 8 1
17 10 1
17 11 1
17 12 1
17 15 1
18 2 1
18 4 1
18 6 1
18 9 1
18 13 1
18 14 1
18 15 1
18 16 1
19 1 1
19 2 1
19 4 1
19 10 1
19 12 1
19 13 1
19 14 1
19 15 1
19 18 1
20 0 1
20 1 1
20 2 1
20 6 1
20 7 1
20 8 1
20 10 1
20 11 1
20 12 1
20 13 1
20 18 1
21 0 1
21 1 1
21 3 1
21 4 1
21 5 1
21 7 1
21 8 1
21 10 1
21 11 1
21 12 1
21 15 1
21 16 1
21 17 1
21 18 1
21 19 1
22 0 1
22 2 1
22 6 1
22 8 1
22 9 1
22 10 1
22 11 1
22 12 1
22 13 1
22 15 1
22 17 1
22 18 1
22 19 1
22 20 1
22 21 1
23 0 1
23 2 1
23 4 1
23 5 1
23 7 1
23 10 1
23 13 1
23 15 1
23 19 1
24 0 1
24 1 1
24 2 1
24 3 1
24 4 1
24 6 1
24 8 1
24 9 1
24 10 1
24 13 1
24 18 1
24 20 1
24 21 1
24 22 1
24 23 1
25 0 1
25 3 1
25 6 1
25 7 1
25 8 1
25 11 1
25 12 1
25 18 1
25 19 1
25 22 1
26 0 1
26 6 1
26 8 1
26 12 1
26 17 1
26 19 1
26 24 1
27 0 1
27 1 1
27 4 1
27 5 1
27 7 1
27 9 1
27 10 1
27 12 1
27 15 1
27 16 1
27 17 1
27 18 1
27 19 1
27 23 1
27 24 1
27 25 1
28 2 1
28 4 1
28 6 1
28 9 1
28 11 1
28 12 1
28 13 1
28 14 1
28 17 1
28 20 1
28 23 1
28 26 1
29 1 1
29 3 1
29 5 1
29 9 1
29 10 1
29 11 1
29 12 1
29 15 1
29 16 1
29 18 1
29 20 1
29 21 1
29 23 1
29 24 1
29 25 1
30 1 1
30 3 1
30 4 1
30 5 1
30 6 1
30 7 1
30 10 1
30 12 1
30 13 1
30 14 1
30 20 1
30 24 1
30 25 1
30 26 1
31 0 1
31 6 1
31 8 1
31 14 1
31 15 1
31 16 1
31 20 1
31 25 1
31 28 1
31 29 1
31 30 1
32 0 1
32 3 1
32 4 1
32 7 1
32 8 1
32 9 1
32 11 1
32 13 1
32 14 1
32 15 1
32 16 1
32 18 1
32 19 1
32 20 1
32 22 1
32 23 1
32 25 1
32 27 1
32 28 1
32 29 1
32 30 1
32 31 1
33 0 1
33 1 1
33 4 1
33 5 1
33 7 1
33 9 1
33 16 1
33 17 1
33 19 1
33 23 1
33 24 1
33 25 1
33 28 1
33 30 1
34 0 1
34 1 1
34 2 1
34 3 1
34 4 1
34 5 1
34 6 1
34 8 1
34 13 1
34 15 1
34 17 1
34 19 1
34 23 1
34 29 1
34 33 1
